     Program PWSCF v.6.4.1 starts on 25Jun2019 at 14:35:39

     Waiting for input...
     Reading input from standard input

     Current dimensions of program PWSCF are:
     Max number of different atomic species (ntypx) = 10
     Max number of k-points (npk) =  40000
     Max angular momentum in pseudopotentials (lmaxx) =  3
               file Si.rel-pbe-n-kjpaw_psl.1.0.0.UPF: wavefunction(s)  3S 3P 3P renormalized

     Subspace diagonalization in iterative solution of the eigenvalue problem:
     a serial algorithm will be used

     bravais-lattice index     =            2
     lattice parameter (alat)  =       6.7017  a.u.
     unit-cell volume          =      75.2477 (a.u.)^3
     number of atoms/cell      =            2
     number of atomic types    =            1
     number of electrons       =         8.00
     number of Kohn-Sham states=            8
     kinetic-energy cutoff     =      43.8015  Ry
     charge density cutoff     =     175.2061  Ry
     convergence threshold     =      1.0E-09
     mixing beta               =       0.6000
     number of iterations used =            8  plain     mixing
     Exchange-correlation      = SLA PW PBX PBC ( 1  4  3  4 0 0)
     nstep                     =           50

     Non magnetic calculation with spin-orbit

     celldm(1)=   6.701690  celldm(2)=   0.000000  celldm(3)=   0.000000
     celldm(4)=   0.000000  celldm(5)=   0.000000  celldm(6)=   0.000000

     crystal axes: (cart. coord. in units of alat)
               a(1) = (  -0.500000   0.000000   0.500000 )
               a(2) = (   0.000000   0.500000   0.500000 )
               a(3) = (  -0.500000   0.500000   0.000000 )

     reciprocal axes: (cart. coord. in units 2 pi/alat)
               b(1) = ( -1.000000 -1.000000  1.000000 )
               b(2) = (  1.000000  1.000000  1.000000 )
               b(3) = ( -1.000000  1.000000 -1.000000 )

     PseudoPot. # 1 for Si read from file:
     ./pseudo/Si.rel-pbe-n-kjpaw_psl.1.0.0.UPF
     MD5 check sum: 516c7a399c3fb0aecfa3742bc839efd8
     Pseudo is Projector augmented-wave + core cor, Zval =  4.0
     Generated using "atomic" code by A. Dal Corso v.6.4.1
     Shape of augmentation charge: PSQ
     Using radial grid of 1141 points, 10 beta functions with:
                l(1) =   0
                l(2) =   0
                l(3) =   1
                l(4) =   1
                l(5) =   1
                l(6) =   1
                l(7) =   2
                l(8) =   2
                l(9) =   2
               l(10) =   2
     Q(r) pseudized with 0 coefficients

     atomic species   valence    mass     pseudopotential
        Si             4.00    28.08550     Si( 1.00)

     48 Sym. Ops., with inversion, found (24 have fractional translation)

   Cartesian axes

     site n.     atom                  positions (alat units)
         1           Si  tau(   1) = (   0.0000000   0.0000000   0.0000000  )
         2           Si  tau(   2) = (  -0.2500000   0.2500000   0.2500000  )

     number of k points=    16  Methfessel-Paxton smearing, width (Ry)=  0.0200
                       cart. coord. in units 2pi/alat
        k(    1) = (   0.0000000   0.0000000   0.0000000), wk =   0.0046296
        k(    2) = (  -0.1666667   0.1666667  -0.1666667), wk =   0.0370370
        k(    3) = (  -0.3333333   0.3333333  -0.3333333), wk =   0.0370370
        k(    4) = (   0.5000000  -0.5000000   0.5000000), wk =   0.0185185
        k(    5) = (   0.0000000   0.3333333   0.0000000), wk =   0.0277778
        k(    6) = (  -0.1666667   0.5000000  -0.1666667), wk =   0.1111111
        k(    7) = (   0.6666667  -0.3333333   0.6666667), wk =   0.1111111
        k(    8) = (   0.5000000  -0.1666667   0.5000000), wk =   0.1111111
        k(    9) = (   0.3333333   0.0000000   0.3333333), wk =   0.0555556
        k(   10) = (   0.0000000   0.6666667   0.0000000), wk =   0.0277778
        k(   11) = (   0.8333333  -0.1666667   0.8333333), wk =   0.1111111
        k(   12) = (   0.6666667   0.0000000   0.6666667), wk =   0.0555556
        k(   13) = (   0.0000000  -1.0000000   0.0000000), wk =   0.0138889
        k(   14) = (   0.6666667  -0.3333333   1.0000000), wk =   0.1111111
        k(   15) = (   0.5000000  -0.1666667   0.8333333), wk =   0.1111111
        k(   16) = (  -0.3333333  -1.0000000   0.0000000), wk =   0.0555556

     Initial potential from superposition of free atoms

     starting charge    7.99890, renormalised to    8.00000
     Starting wfcs are   16 randomized atomic wfcs
     Checking if some PAW data can be deallocated...

     Self-consistent Calculation

     iteration #  1     ecut=    43.80 Ry     beta= 0.60
     Davidson diagonalization with overlap
     ethr =  1.00E-02,  avg # of iterations =  2.8

     Threshold (ethr) on eigenvalues was too large:
     Diagonalizing with lowered threshold

     Davidson diagonalization with overlap
     ethr =  9.96E-04,  avg # of iterations =  2.6

     total energy              =     -90.27100684 Ry
     Harris-Foulkes estimate   =     -90.32719769 Ry
     estimated scf accuracy    <       0.06989775 Ry

[...]

     iteration #  6     ecut=    43.80 Ry     beta= 0.60
     Davidson diagonalization with overlap
     c_bands:  1 eigenvalues not converged
     ethr =  4.67E-10,  avg # of iterations =  5.4

[...]

     End of self-consistent calculation

          k = 0.0000 0.0000 0.0000 (   339 PWs)   bands (ev):

     4.2165   4.2165  30.5306  30.5306  30.6297  30.6297  30.6297  30.6297

          k =-0.1667 0.1667-0.1667 (   362 PWs)   bands (ev):

[...]

     the Fermi energy is    30.7367 ev

!    total energy              =     -90.28884684 Ry
     Harris-Foulkes estimate   =     -90.28884684 Ry
     estimated scf accuracy    <          1.2E-10 Ry

     total all-electron energy =     -1156.970905 Ry

     The total energy is the sum of the following terms:

     one-electron contribution =      21.63648727 Ry
     hartree contribution      =       0.13290231 Ry
     xc contribution           =     -14.59394274 Ry
     ewald contribution        =     -25.72150277 Ry
     one-center paw contrib.   =     -71.74289827 Ry
     smearing contrib. (-TS)   =       0.00010736 Ry

     convergence has been achieved in  16 iterations

     Forces acting on atoms (cartesian axes, Ry/au):

     atom    1 type  1   force =     0.00000000    0.00000000    0.00000000
     atom    2 type  1   force =     0.00000000    0.00000000    0.00000000

     Total force =     0.000000     Total SCF correction =     0.000000

     Computing stress (Cartesian axis) and pressure

     Message from routine stres:
     noncollinear stress + GGA not implemented

     BFGS Geometry Optimization

     bfgs converged in   1 scf cycles and   0 bfgs steps
     (criteria: energy <  1.0E-04 Ry, force <  1.0E-03Ry/Bohr, cell <  5.0E-01kbar)

     End of BFGS Geometry Optimization

     Final enthalpy =     -90.2888468449 Ry
Begin final coordinates
     new unit-cell volume =     75.24766 a.u.^3 (    11.15055 Ang^3 )
     density =      8.36498 g/cm^3

CELL_PARAMETERS (alat=  6.70169000)
  -0.500000000   0.000000000   0.500000000
   0.000000000   0.500000000   0.500000000
  -0.500000000   0.500000000   0.000000000

ATOMIC_POSITIONS (crystal)
Si       0.000000000   0.000000000   0.000000000
Si       0.250000000   0.250000000   0.250000000
End final coordinates

     Writing output data file pwscf.save/

     A final scf calculation at the relaxed structure.
     The G-vectors are recalculated for the final unit cell
     Results may differ from those at the preceding step.

     bravais-lattice index     =            2
     lattice parameter (alat)  =       6.7017  a.u.
     unit-cell volume          =      75.2477 (a.u.)^3
     number of atoms/cell      =            2
     number of atomic types    =            1
     number of electrons       =         8.00
     number of Kohn-Sham states=            8
     kinetic-energy cutoff     =      43.8015  Ry
     charge density cutoff     =     175.2061  Ry
     convergence threshold     =      1.0E-09
     mixing beta               =       0.6000
     number of iterations used =            8  plain     mixing
     Exchange-correlation      = SLA PW PBX PBC ( 1  4  3  4 0 0)
     Non magnetic calculation with spin-orbit

     celldm(1)=   6.701690  celldm(2)=   0.000000  celldm(3)=   0.000000
     celldm(4)=   0.000000  celldm(5)=   0.000000  celldm(6)=   0.000000

     crystal axes: (cart. coord. in units of alat)
               a(1) = (  -0.500000   0.000000   0.500000 )
               a(2) = (   0.000000   0.500000   0.500000 )
               a(3) = (  -0.500000   0.500000   0.000000 )

     reciprocal axes: (cart. coord. in units 2 pi/alat)
               b(1) = ( -1.000000 -1.000000  1.000000 )
               b(2) = (  1.000000  1.000000  1.000000 )
               b(3) = ( -1.000000  1.000000 -1.000000 )

     PseudoPot. # 1 for Si read from file:
     ./pseudo/Si.rel-pbe-n-kjpaw_psl.1.0.0.UPF
     MD5 check sum: 516c7a399c3fb0aecfa3742bc839efd8
     Pseudo is Projector augmented-wave + core cor, Zval =  4.0
     Generated using "atomic" code by A. Dal Corso v.6.4.1
     Shape of augmentation charge: PSQ
     Using radial grid of 1141 points, 10 beta functions with:
                l(1) =   0
                l(2) =   0
                l(3) =   1
                l(4) =   1
                l(5) =   1
                l(6) =   1
                l(7) =   2
                l(8) =   2
                l(9) =   2
               l(10) =   2
     Q(r) pseudized with 0 coefficients

     atomic species   valence    mass     pseudopotential
        Si             4.00    28.08550     Si( 1.00)

     48 Sym. Ops., with inversion, found (24 have fractional translation)

   Cartesian axes

     site n.     atom                  positions (alat units)
         1           Si  tau(   1) = (   0.0000000   0.0000000   0.0000000  )
         2           Si  tau(   2) = (  -0.2500000   0.2500000   0.2500000  )

     number of k points=    16  Methfessel-Paxton smearing, width (Ry)=  0.0200
                       cart. coord. in units 2pi/alat
        k(    1) = (   0.0000000   0.0000000   0.0000000), wk =   0.0046296
        k(    2) = (  -0.1666667   0.1666667  -0.1666667), wk =   0.0370370
        k(    3) = (  -0.3333333   0.3333333  -0.3333333), wk =   0.0370370
        k(    4) = (   0.5000000  -0.5000000   0.5000000), wk =   0.0185185
        k(    5) = (   0.0000000   0.3333333   0.0000000), wk =   0.0277778
        k(    6) = (  -0.1666667   0.5000000  -0.1666667), wk =   0.1111111
        k(    7) = (   0.6666667  -0.3333333   0.6666667), wk =   0.1111111
        k(    8) = (   0.5000000  -0.1666667   0.5000000), wk =   0.1111111
        k(    9) = (   0.3333333   0.0000000   0.3333333), wk =   0.0555556
        k(   10) = (   0.0000000   0.6666667   0.0000000), wk =   0.0277778
        k(   11) = (   0.8333333  -0.1666667   0.8333333), wk =   0.1111111
        k(   12) = (   0.6666667   0.0000000   0.6666667), wk =   0.0555556
        k(   13) = (   0.0000000  -1.0000000   0.0000000), wk =   0.0138889
        k(   14) = (   0.6666667  -0.3333333   1.0000000), wk =   0.1111111
        k(   15) = (   0.5000000  -0.1666667   0.8333333), wk =   0.1111111
        k(   16) = (  -0.3333333  -1.0000000   0.0000000), wk =   0.0555556

     Initial potential from superposition of free atoms

     starting charge    7.99890, renormalised to    8.00000
     Starting wfcs are   16 randomized atomic wfcs
     Checking if some PAW data can be deallocated...

     Self-consistent Calculation

[...]

     iteration #  7     ecut=    43.80 Ry     beta= 0.60
     Davidson diagonalization with overlap
     c_bands:  1 eigenvalues not converged
     ethr =  3.47E-09,  avg # of iterations =  2.2

[...]

     total energy              =     -90.28884684 Ry
     Harris-Foulkes estimate   =     -90.28884685 Ry
     estimated scf accuracy    <       0.00000001 Ry

     iteration # 12     ecut=    43.80 Ry     beta= 0.60
     Davidson diagonalization with overlap
     ethr =  1.34E-10,  avg # of iterations =  2.8

     End of self-consistent calculation

[...]

          k = 0.5000-0.1667 0.8333 (   370 PWs)   bands (ev):

[...]

          k =-0.3333-1.0000 0.0000 (   374 PWs)   bands (ev):

    15.8950  15.8950  15.9034  15.9034  19.4317  19.4317  19.4459  19.4459

     the Fermi energy is    30.7368 ev

!    total energy              =     -90.28884685 Ry
     Harris-Foulkes estimate   =     -90.28884685 Ry
     estimated scf accuracy    <          2.6E-10 Ry

     total all-electron energy =     -1156.970905 Ry

     The total energy is the sum of the following terms:

     one-electron contribution =      21.63647789 Ry
     hartree contribution      =       0.13289674 Ry
     xc contribution           =     -14.59393635 Ry
     ewald contribution        =     -25.72150277 Ry
     one-center paw contrib.   =     -71.74288970 Ry
     smearing contrib. (-TS)   =       0.00010736 Ry

     convergence has been achieved in  12 iterations

     Forces acting on atoms (cartesian axes, Ry/au):

     atom    1 type  1   force =     0.00000000    0.00000000    0.00000000
     atom    2 type  1   force =     0.00000000    0.00000000    0.00000000

     Total force =     0.000000     Total SCF correction =     0.000000

     Computing stress (Cartesian axis) and pressure

     Message from routine stres:
     noncollinear stress + GGA not implemented

     Writing output data file pwscf.save/

     General routines

     Parallel routines

   This run was terminated on:  14:36: 5  25Jun2019

   JOB DONE.